0 4814.36
1 4814.36
2 4814.36
3 4633.28
4 4633.28
5 4633.28
6 4633.28
7 4633.28
8 4633.28
9 4633.28
10 4633.28
11 4633.28
12 4633.28
13 4630.42
14 4630.42
15 4602.31
16 4602.31
17 4592.98
18 4592.98
19 4592.98
20 4592.98
21 4592.98
22 4592.98
23 4592.98
24 4592.98
25 4592.98
26 4592.98
27 4592.98
28 4587.10
29 4587.10
30 4587.10
31 4587.10
32 4587.10
33 4587.10
34 4587.10
35 4583.43
36 4583.43
37 4583.43
38 4583.43
39 4583.43
40 4583.43
41 4583.43
42 4583.43
43 4583.43
44 4583.43
45 4583.43
46 4583.43
47 4583.43
48 4568.55
49 4568.55
50 4568.55
51 4568.55
52 4568.55
53 4568.55
54 4568.55
55 4568.55
56 4568.55
57 4568.55
58 4568.55
59 4568.55
60 4568.55
61 4568.55
62 4568.55
63 4568.55
64 4568.55
65 4568.55
66 4568.55
67 4568.55
68 4564.50
69 4564.50
70 4564.50
71 4564.50
72 4564.50
73 4564.50
74 4564.50
75 4564.50
76 4564.50
77 4564.50
78 4564.50
79 4564.50
80 4564.50
81 4564.50
82 4558.51
83 4558.51
84 4558.51
85 4558.51
86 4558.51
87 4558.51
88 4558.51
89 4558.51
90 4558.51
91 4530.72
92 4530.72
93 4530.72
94 4530.72
95 4530.72
96 4530.72
97 4530.72
98 4530.72
99 4530.72
100 4530.72
101 4530.72
102 4530.72
103 4530.72
104 4530.72
105 4530.72
106 4528.69
107 4528.69
108 4528.69
109 4528.69
110 4528.69
111 4528.69
112 4528.69
113 4528.69
114 4528.69
115 4528.69
116 4528.69
117 4528.69
118 4528.69
119 4528.69
120 4528.69
121 4528.69
122 4528.69
123 4528.69
124 4527.76
125 4527.76
126 4527.76
127 4527.76
128 4527.76
129 4527.76
130 4527.76
131 4527.76
132 4527.76
133 4527.76
134 4527.76
135 4527.76
136 4527.76
137 4527.76
138 4527.76
139 4527.76
140 4527.76
141 4527.76
142 4527.76
143 4527.76
144 4527.76
145 4527.76
146 4527.76
147 4527.76
148 4527.76
149 4527.76
150 4527.76
151 4527.76
152 4527.76
153 4527.76
154 4527.76
155 4527.76
156 4527.76
157 4527.76
158 4527.76
159 4527.76
160 4527.76
161 4527.76
162 4527.76
163 4527.76
164 4527.76
165 4527.76
166 4527.76
167 4527.76
168 4527.76
169 4527.76
170 4527.76
171 4527.76
172 4527.76
173 4527.76
174 4527.76
175 4527.76
176 4527.76
177 4527.76
178 4527.76
179 4527.76
180 4527.76
181 4527.76
182 4527.76
183 4527.76
184 4527.76
185 4527.76
186 4527.76
187 4527.76
188 4527.76
189 4527.76
190 4527.76
191 4527.76
192 4527.76
193 4527.76
194 4527.76
195 4527.76
196 4527.76
197 4527.76
198 4527.76
199 4527.76
200 4527.76
201 4527.76
202 4527.76
203 4527.76
204 4527.76
205 4527.76
206 4527.76
207 4527.76
208 4527.76
209 4527.76
210 4527.76
211 4527.76
212 4527.76
213 4527.76
214 4527.76
215 4527.76
216 4527.76
217 4527.76
218 4527.76
219 4527.76
220 4527.76
221 4527.76
222 4527.76
223 4527.76
224 4527.76
225 4527.76
226 4527.76
227 4527.76
228 4527.76
229 4527.76
230 4527.76
231 4527.76
232 4527.76
233 4527.76
234 4527.76
235 4527.76
236 4527.76
237 4527.76
238 4527.76
239 4527.76
240 4527.76
241 4527.76
242 4527.76
243 4527.76
244 4527.76
245 4527.76
246 4527.76
247 4527.76
248 4527.76
249 4527.76
250 4527.76
251 4527.76
252 4527.76
253 4527.76
254 4527.76
255 4527.76
256 4527.76
257 4527.76
258 4527.76
259 4527.76
260 4527.76
261 4527.76
262 4527.76
263 4527.76
264 4527.76
265 4527.76
266 4527.76
267 4527.76
268 4527.76
269 4527.76
270 4527.76
271 4527.76
272 4527.76
273 4527.76
274 4527.76
275 4527.76
276 4527.76
277 4527.76
278 4527.76
279 4527.76
280 4527.76
281 4527.76
282 4527.76
283 4527.76
284 4527.76
285 4527.76
286 4527.76
287 4527.76
288 4527.76
289 4527.76
290 4527.76
291 4527.76
292 4527.76
293 4527.76
294 4527.76
295 4527.76
296 4527.76
297 4527.76
298 4527.76
299 4527.76
300 4527.76
301 4527.76
302 4527.76
303 4527.76
304 4527.76
305 4527.76
306 4527.76
307 4527.76
308 4527.76
309 4527.76
310 4527.76
311 4527.76
312 4527.76
313 4527.76
314 4527.76
315 4527.76
316 4527.76
317 4527.76
318 4527.76
319 4527.76
320 4527.76
321 4527.76
322 4527.76
323 4527.76
324 4527.76
325 4527.76
326 4527.76
327 4527.76
328 4527.76
329 4527.76
330 4527.76
331 4527.76
332 4527.76
333 4527.76
334 4527.76
335 4527.76
336 4527.76
337 4527.76
338 4527.76
339 4527.76
340 4527.76
341 4527.76
342 4527.76
343 4527.76
344 4527.76
345 4527.76
346 4527.76
347 4527.76
348 4527.76
349 4523.02
350 4523.02
351 4523.02
352 4523.02
353 4523.02
354 4523.02
355 4523.02
356 4523.02
357 4523.02
358 4523.02
359 4523.02
360 4523.02
361 4523.02
362 4523.02
363 4523.02
364 4523.02
365 4523.02
366 4523.02
367 4523.02
368 4523.02
369 4523.02
370 4523.02
371 4523.02
372 4523.02
373 4523.02
374 4523.02
375 4523.02
376 4523.02
377 4523.02
378 4523.02
379 4523.02
380 4523.02
381 4523.02
382 4523.02
383 4523.02
384 4523.02
385 4523.02
386 4523.02
387 4523.02
388 4523.02
389 4523.02
390 4523.02
391 4523.02
392 4523.02
393 4523.02
394 4523.02
395 4523.02
396 4523.02
397 4523.02
398 4523.02
399 4523.02
400 4523.02
401 4523.02
402 4523.02
403 4523.02
404 4523.02
405 4523.02
406 4523.02
407 4523.02
408 4523.02
409 4523.02
410 4523.02
411 4523.02
412 4523.02
413 4523.02
414 4523.02
415 4523.02
416 4523.02
417 4523.02
418 4523.02
419 4523.02
420 4523.02
421 4523.02
422 4523.02
423 4523.02
424 4523.02
425 4523.02
426 4523.02
427 4523.02
428 4523.02
429 4523.02
430 4523.02
431 4523.02
432 4523.02
433 4523.02
434 4523.02
435 4523.02
436 4523.02
437 4523.02
438 4523.02
439 4523.02
440 4523.02
441 4523.02
442 4523.02
443 4523.02
444 4523.02
445 4523.02
446 4523.02
447 4523.02
448 4523.02
449 4523.02
450 4523.02
451 4523.02
452 4523.02
453 4523.02
454 4523.02
455 4523.02
456 4523.02
457 4523.02
458 4523.02
459 4523.02
460 4523.02
461 4523.02
462 4523.02
463 4523.02
464 4523.02
465 4523.02
466 4523.02
467 4523.02
468 4523.02
469 4523.02
470 4523.02
471 4523.02
472 4523.02
473 4523.02
474 4523.02
475 4523.02
476 4523.02
477 4523.02
478 4523.02
479 4523.02
480 4523.02
481 4523.02
482 4523.02
483 4523.02
484 4523.02
485 4523.02
486 4523.02
487 4523.02
488 4523.02
489 4523.02
490 4523.02
491 4523.02
492 4523.02
493 4523.02
494 4523.02
495 4523.02
496 4523.02
497 4523.02
498 4523.02
499 4523.02
2 3 9 5 0 0 